data;
param T := 15000;
param N := 25;
param W := 
[0] 4219
[1] 8401
[2] 6014
[3] 98
[4] 759
[5] 437
[6] 1465
[7] 4353
[8] 1024
[9] 9954
[10] 878
[11] 1786
[12] 7574
[13] 2618
[14] 6845
[15] 6070
[16] 1812
[17] 696
[18] 5446
[19] 5541
[20] 4438
[21] 7328
[22] 998
[23] 8494
[24] 4562
;
end;